(set-logic HORN)


(declare-fun |always_from_to_reset| ( Bool Bool Bool Bool Bool Bool Bool Bool Bool Bool Bool Bool Bool Bool Bool Bool ) Bool)
(declare-fun |always_since_reset| ( Bool Bool Bool Bool Bool Bool ) Bool)
(declare-fun |always_from_to_step| ( Bool Bool Bool Bool Bool Bool Bool Bool Bool Bool Bool Bool Bool Bool Bool Bool Bool Bool Bool Bool ) Bool)
(declare-fun |after_reset| ( Bool Bool Bool Bool ) Bool)
(declare-fun |UMS_fun| ( Bool Bool Bool Bool Bool Bool Bool Bool Bool ) Bool)
(declare-fun |__implies_fun| ( Bool Bool Bool ) Bool)
(declare-fun |Sofar_step| ( Bool Bool Bool Bool Bool Bool ) Bool)
(declare-fun |Sofar_reset| ( Bool Bool Bool Bool ) Bool)
(declare-fun |once_since_reset| ( Bool Bool Bool Bool Bool Bool ) Bool)
(declare-fun |ERR| ( ) Bool)
(declare-fun |once_since_step| ( Bool Bool Bool Bool Bool Bool Bool Bool Bool ) Bool)
(declare-fun |INIT_STATE| ( ) Bool)
(declare-fun |always_since_step| ( Bool Bool Bool Bool Bool Bool Bool Bool Bool ) Bool)
(declare-fun |MAIN| ( Bool Bool Bool Bool Bool Bool Bool Bool Bool Bool Bool Bool Bool Bool Bool Bool Bool Bool Bool Bool Bool Bool Bool Bool Bool Bool Bool Bool Bool Bool Bool Bool Bool Bool Bool Bool Bool Bool Bool Bool Bool Bool Bool Bool Bool Bool ) Bool)
(declare-fun |edge_reset| ( Bool Bool Bool Bool ) Bool)
(declare-fun |top_step| ( Bool Bool Bool Bool Bool Bool Bool Bool Bool Bool Bool Bool Bool Bool Bool Bool Bool Bool Bool Bool Bool Bool Bool Bool Bool Bool Bool Bool Bool Bool Bool Bool Bool Bool Bool Bool Bool Bool Bool Bool Bool Bool Bool Bool Bool Bool Bool Bool Bool Bool Bool Bool Bool Bool Bool Bool Bool Bool Bool Bool Bool Bool Bool Bool Bool Bool Bool Bool Bool Bool Bool Bool Bool Bool Bool Bool Bool Bool Bool Bool Bool Bool Bool Bool Bool Bool Bool Bool Bool Bool Bool Bool Bool Bool Bool Bool ) Bool)
(declare-fun |edge_step| ( Bool Bool Bool Bool Bool Bool ) Bool)
(declare-fun |after_step| ( Bool Bool Bool Bool Bool Bool ) Bool)
(declare-fun |top_reset| ( Bool Bool Bool Bool Bool Bool Bool Bool Bool Bool Bool Bool Bool Bool Bool Bool Bool Bool Bool Bool Bool Bool Bool Bool Bool Bool Bool Bool Bool Bool Bool Bool Bool Bool Bool Bool Bool Bool Bool Bool Bool Bool Bool Bool Bool Bool Bool Bool Bool Bool Bool Bool Bool Bool Bool Bool Bool Bool Bool Bool Bool Bool Bool Bool Bool Bool Bool Bool Bool Bool Bool Bool Bool Bool Bool Bool Bool Bool Bool Bool Bool Bool Bool Bool Bool Bool Bool Bool Bool Bool ) Bool)

(assert
  (forall ( (A Bool) (B Bool) (C Bool) (D Bool) ) 
    (=>
      (and
        (and (= D true) (= C A))
      )
      (after_reset A B C D)
    )
  )
)
(assert
  (forall ( (A Bool) (B Bool) (C Bool) (D Bool) (E Bool) (F Bool) (G Bool) (H Bool) ) 
    (=>
      (and
        (and (= B A) (= G (or D C)) (or (= D E) B) (or (not D) (not B)) (not H) (= A F))
      )
      (after_step C D E F G H)
    )
  )
)
(assert
  (forall ( (A Bool) (B Bool) (C Bool) (D Bool) (E Bool) (F Bool) ) 
    (=>
      (and
        (after_reset B C E F)
        (= D A)
      )
      (always_since_reset A B C D E F)
    )
  )
)
(assert
  (forall ( (A Bool) (B Bool) (C Bool) (D Bool) (E Bool) (F Bool) (G Bool) (H Bool) (I Bool) (J Bool) (K Bool) (L Bool) ) 
    (=>
      (and
        (after_step E C A B K L)
        (let ((a!1 (and (or F C) (or (not C) (= F (and G D))))))
  (and (= B I) (= J F) (or (not E) (= F D)) (or E a!1) (= A H)))
      )
      (always_since_step D E F G H I J K L)
    )
  )
)
(assert
  (forall ( (A Bool) (B Bool) (C Bool) ) 
    (=>
      (and
        (= C (or B (not A)))
      )
      (__implies_fun A B C)
    )
  )
)
(assert
  (forall ( (A Bool) (B Bool) (C Bool) (D Bool) (E Bool) (F Bool) ) 
    (=>
      (and
        (after_reset B C E F)
        (= D A)
      )
      (once_since_reset A B C D E F)
    )
  )
)
(assert
  (forall ( (A Bool) (B Bool) (C Bool) (D Bool) (E Bool) (F Bool) (G Bool) (H Bool) (I Bool) (J Bool) (K Bool) (L Bool) ) 
    (=>
      (and
        (after_step E C A B K L)
        (let ((a!1 (and (or F C) (or (not C) (= F (or G D))))))
  (and (= B I) (= J F) (or (not E) (= F D)) (or E a!1) (= A H)))
      )
      (once_since_step D E F G H I J K L)
    )
  )
)
(assert
  (forall ( (A Bool) (B Bool) (C Bool) (D Bool) ) 
    (=>
      (and
        (and (= D true) (= C A))
      )
      (Sofar_reset A B C D)
    )
  )
)
(assert
  (forall ( (A Bool) (B Bool) (C Bool) (D Bool) (E Bool) (F Bool) (G Bool) (H Bool) ) 
    (=>
      (and
        (and (= B A) (= G D) (or B (= D (or E C))) (or (not B) (= D C)) (not H) (= A F))
      )
      (Sofar_step C D E F G H)
    )
  )
)
(assert
  (forall ( (A Bool) (B Bool) (C Bool) (D Bool) (E Bool) (F Bool) (G Bool) (H Bool) (I Bool) (J Bool) (K Bool) ) 
    (=>
      (and
        (and (= A (and (not E) D (not C)))
     (= H (and F B))
     (= I (and G A))
     (= J (and (not F) B))
     (= K (and (not G) A))
     (not (= (or E D C) B)))
      )
      (UMS_fun C D E F G H I J K)
    )
  )
)
(assert
  (forall ( (A Bool) (B Bool) (C Bool) (D Bool) (E Bool) (F Bool) (G Bool) (H Bool) (I Bool) (J Bool) (K Bool) (L Bool) (M Bool) (N Bool) (O Bool) (P Bool) ) 
    (=>
      (and
        (once_since_reset A B C I J K)
        (after_reset G H O P)
        (always_since_reset D E F L M N)
        true
      )
      (always_from_to_reset A B C D E F G H I J K L M N O P)
    )
  )
)
(assert
  (forall ( (A Bool) (B Bool) (C Bool) (D Bool) (E Bool) (F Bool) (G Bool) (H Bool) (I Bool) (J Bool) (K Bool) (L Bool) (M Bool) (N Bool) (O Bool) (P Bool) (Q Bool) (R Bool) (S Bool) (T Bool) (U Bool) (V Bool) (W Bool) (X Bool) (Y Bool) (Z Bool) (A1 Bool) (B1 Bool) (C1 Bool) (D1 Bool) (E1 Bool) (F1 Bool) ) 
    (=>
      (and
        (__implies_fun J A P)
        (after_step N J B C E1 F1)
        (always_since_step M N K D E F B1 C1 D1)
        (once_since_step O N L G H I Y Z A1)
        (and (= B W)
     (= C X)
     (= D T)
     (= E U)
     (= F V)
     (= G Q)
     (= H R)
     (= I S)
     (= A (or L K)))
      )
      (always_from_to_step M N O P Q R S T U V W X Y Z A1 B1 C1 D1 E1 F1)
    )
  )
)
(assert
  (forall ( (A Bool) (B Bool) (C Bool) (D Bool) ) 
    (=>
      (and
        (and (= D true) (= C A))
      )
      (edge_reset A B C D)
    )
  )
)
(assert
  (forall ( (A Bool) (B Bool) (C Bool) (D Bool) (E Bool) (F Bool) (G Bool) (H Bool) ) 
    (=>
      (and
        (let ((a!1 (or B (= D (and (not E) C)))))
  (and (= B A) (= G C) a!1 (or (not B) (= D C)) (not H) (= A F)))
      )
      (edge_step C D E F G H)
    )
  )
)
(assert
  (forall ( (A Bool) (B Bool) (C Bool) (D Bool) (E Bool) (F Bool) (G Bool) (H Bool) (I Bool) (J Bool) (K Bool) (L Bool) (M Bool) (N Bool) (O Bool) (P Bool) (Q Bool) (R Bool) (S Bool) (T Bool) (U Bool) (V Bool) (W Bool) (X Bool) (Y Bool) (Z Bool) (A1 Bool) (B1 Bool) (C1 Bool) (D1 Bool) (E1 Bool) (F1 Bool) (G1 Bool) (H1 Bool) (I1 Bool) (J1 Bool) (K1 Bool) (L1 Bool) (M1 Bool) (N1 Bool) (O1 Bool) (P1 Bool) (Q1 Bool) (R1 Bool) (S1 Bool) (T1 Bool) (U1 Bool) (V1 Bool) (W1 Bool) (X1 Bool) (Y1 Bool) (Z1 Bool) (A2 Bool) (B2 Bool) (C2 Bool) (D2 Bool) (E2 Bool) (F2 Bool) (G2 Bool) (H2 Bool) (I2 Bool) (J2 Bool) (K2 Bool) (L2 Bool) (M2 Bool) (N2 Bool) (O2 Bool) (P2 Bool) (Q2 Bool) (R2 Bool) (S2 Bool) (T2 Bool) (U2 Bool) (V2 Bool) (W2 Bool) (X2 Bool) (Y2 Bool) (Z2 Bool) (A3 Bool) (B3 Bool) (C3 Bool) (D3 Bool) (E3 Bool) (F3 Bool) (G3 Bool) (H3 Bool) (I3 Bool) (J3 Bool) (K3 Bool) (L3 Bool) ) 
    (=>
      (and
        (Sofar_reset C D V1 W1)
        (always_from_to_reset L1 M1 N1 O1 P1 Q1 R1 S1 E3 F3 G3 H3 I3 J3 K3 L3)
        (always_from_to_reset D1 E1 F1 G1 H1 I1 J1 K1 W2 X2 Y2 Z2 A3 B3 C3 D3)
        (edge_reset B1 C1 U2 V2)
        (edge_reset Y Z R2 S2)
        (edge_reset W X P2 Q2)
        (always_from_to_reset O P Q R S T U V H2 I2 J2 K2 L2 M2 N2 O2)
        (always_from_to_reset G H I J K L M N Z1 A2 B2 C2 D2 E2 F2 G2)
        (edge_reset E F X1 Y1)
        (and (= U1 B) (= T2 true) (= T1 A))
      )
      (top_reset A
           B
           C
           D
           E
           F
           G
           H
           I
           J
           K
           L
           M
           N
           O
           P
           Q
           R
           S
           T
           U
           V
           W
           X
           Y
           Z
           A1
           B1
           C1
           D1
           E1
           F1
           G1
           H1
           I1
           J1
           K1
           L1
           M1
           N1
           O1
           P1
           Q1
           R1
           S1
           T1
           U1
           V1
           W1
           X1
           Y1
           Z1
           A2
           B2
           C2
           D2
           E2
           F2
           G2
           H2
           I2
           J2
           K2
           L2
           M2
           N2
           O2
           P2
           Q2
           R2
           S2
           T2
           U2
           V2
           W2
           X2
           Y2
           Z2
           A3
           B3
           C3
           D3
           E3
           F3
           G3
           H3
           I3
           J3
           K3
           L3)
    )
  )
)
(assert
  (forall ( (A Bool) (B Bool) (C Bool) (D Bool) (E Bool) (F Bool) (G Bool) (H Bool) (I Bool) (J Bool) (K Bool) (L Bool) (M Bool) (N Bool) (O Bool) (P Bool) (Q Bool) (R Bool) (S Bool) (T Bool) (U Bool) (V Bool) (W Bool) (X Bool) (Y Bool) (Z Bool) (A1 Bool) (B1 Bool) (C1 Bool) (D1 Bool) (E1 Bool) (F1 Bool) (G1 Bool) (H1 Bool) (I1 Bool) (J1 Bool) (K1 Bool) (L1 Bool) (M1 Bool) (N1 Bool) (O1 Bool) (P1 Bool) (Q1 Bool) (R1 Bool) (S1 Bool) (T1 Bool) (U1 Bool) (V1 Bool) (W1 Bool) (X1 Bool) (Y1 Bool) (Z1 Bool) (A2 Bool) (B2 Bool) (C2 Bool) (D2 Bool) (E2 Bool) (F2 Bool) (G2 Bool) (H2 Bool) (I2 Bool) (J2 Bool) (K2 Bool) (L2 Bool) (M2 Bool) (N2 Bool) (O2 Bool) (P2 Bool) (Q2 Bool) (R2 Bool) (S2 Bool) (T2 Bool) (U2 Bool) (V2 Bool) (W2 Bool) (X2 Bool) (Y2 Bool) (Z2 Bool) (A3 Bool) (B3 Bool) (C3 Bool) (D3 Bool) (E3 Bool) (F3 Bool) (G3 Bool) (H3 Bool) (I3 Bool) (J3 Bool) (K3 Bool) (L3 Bool) (M3 Bool) (N3 Bool) (O3 Bool) (P3 Bool) (Q3 Bool) (R3 Bool) (S3 Bool) (T3 Bool) (U3 Bool) (V3 Bool) (W3 Bool) (X3 Bool) (Y3 Bool) (Z3 Bool) (A4 Bool) (B4 Bool) (C4 Bool) (D4 Bool) (E4 Bool) (F4 Bool) (G4 Bool) (H4 Bool) (I4 Bool) (J4 Bool) (K4 Bool) (L4 Bool) (M4 Bool) (N4 Bool) (O4 Bool) (P4 Bool) (Q4 Bool) (R4 Bool) (S4 Bool) (T4 Bool) (U4 Bool) (V4 Bool) (W4 Bool) (X4 Bool) (Y4 Bool) (Z4 Bool) (A5 Bool) (B5 Bool) (C5 Bool) (D5 Bool) (E5 Bool) (F5 Bool) (G5 Bool) (H5 Bool) (I5 Bool) (J5 Bool) (K5 Bool) (L5 Bool) (M5 Bool) (N5 Bool) (O5 Bool) (P5 Bool) (Q5 Bool) (R5 Bool) (S5 Bool) (T5 Bool) (U5 Bool) (V5 Bool) (W5 Bool) (X5 Bool) (Y5 Bool) (Z5 Bool) (A6 Bool) (B6 Bool) (C6 Bool) (D6 Bool) (E6 Bool) (F6 Bool) (G6 Bool) (H6 Bool) (I6 Bool) (J6 Bool) (K6 Bool) (L6 Bool) (v_168 Bool) (v_169 Bool) ) 
    (=>
      (and
        (UMS_fun U2 V2 W2 X2 Y2 N2 M2 Q2 R2)
        (always_from_to_step Y2 M2 X1 T2 G H I J K L M N E6 F6 G6 H6 I6 J6 K6 L6)
        (always_from_to_step X2 N2 F S2 O P Q R S T U V W5 X5 Y5 Z5 A6 B6 C6 D6)
        (__implies_fun N2 X1 P2)
        (edge_step W2 Y W X U5 V5)
        (__implies_fun Y B3 A1)
        (edge_step E D1 B1 C1 R5 S5)
        (__implies_fun D1 V2 I2)
        (edge_step D G1 E1 F1 P5 Q5)
        (__implies_fun G1 C J2)
        (always_from_to_step
  X2
  v_168
  R2
  D2
  H1
  I1
  J1
  K1
  L1
  M1
  N1
  O1
  H5
  I5
  J5
  K5
  L5
  M5
  N5
  O5)
        (always_from_to_step
  Y2
  v_169
  Q2
  E2
  P1
  Q1
  R1
  S1
  T1
  U1
  V1
  W1
  Z4
  A5
  B5
  C5
  D5
  E5
  F5
  G5)
        (edge_step B A2 Y1 Z1 X4 Y4)
        (__implies_fun A2 A3 C2)
        (Sofar_step A O2 K2 L2 V4 W4)
        (let ((a!1 (or (not O2) (and T2 S2 P2 (or (not R2) (not Q2)))))
      (a!2 (= A (and J2 I2 H2 G2 F2 E2 D2 (or (not Y2) (not X2))))))
  (and (= v_168 X2)
       (= v_169 Y2)
       (= G L4)
       (= H M4)
       (= I N4)
       (= J O4)
       (= K P4)
       (= L Q4)
       (= M R4)
       (= N S4)
       (= O D4)
       (= P E4)
       (= Q F4)
       (= R G4)
       (= S H4)
       (= T I4)
       (= U J4)
       (= V K4)
       (= W B4)
       (= X C4)
       (= Z A4)
       (= B1 Y3)
       (= C1 Z3)
       (= E1 W3)
       (= F1 X3)
       (= H1 O3)
       (= I1 P3)
       (= J1 Q3)
       (= K1 R3)
       (= L1 S3)
       (= M1 T3)
       (= N1 U3)
       (= O1 V3)
       (= P1 G3)
       (= Q1 H3)
       (= R1 I3)
       (= S1 J3)
       (= T1 K3)
       (= U1 L3)
       (= V1 M3)
       (= W1 N3)
       (not (= X1 B))
       (= Y1 E3)
       (= Z1 F3)
       (= B2 Z)
       (= K2 C3)
       (= L2 D3)
       (not (= U2 E))
       (not (= V2 D))
       (= Z2 a!1)
       (= T4 N2)
       (= U4 M2)
       a!2
       (= C (or W2 U2))
       (= F (and (not W2) V2 (not U2)))
       (or (not B2) (= F2 X1))
       (or (= G2 C2) B2)
       (or B2 (= H2 A1))
       (or F2 B2)
       (or (not B2) G2)
       (or (not B2) H2)
       (not T5)
       (not (= (or W2 V2 U2) X1))))
      )
      (top_step U2
          V2
          W2
          X2
          Y2
          Z2
          A3
          B3
          C3
          D3
          E3
          F3
          G3
          H3
          I3
          J3
          K3
          L3
          M3
          N3
          O3
          P3
          Q3
          R3
          S3
          T3
          U3
          V3
          W3
          X3
          Y3
          Z3
          A4
          B4
          C4
          D4
          E4
          F4
          G4
          H4
          I4
          J4
          K4
          L4
          M4
          N4
          O4
          P4
          Q4
          R4
          S4
          T4
          U4
          V4
          W4
          X4
          Y4
          Z4
          A5
          B5
          C5
          D5
          E5
          F5
          G5
          H5
          I5
          J5
          K5
          L5
          M5
          N5
          O5
          P5
          Q5
          R5
          S5
          T5
          U5
          V5
          W5
          X5
          Y5
          Z5
          A6
          B6
          C6
          D6
          E6
          F6
          G6
          H6
          I6
          J6
          K6
          L6)
    )
  )
)
(assert
  (forall ( (CHC_COMP_UNUSED Bool) ) 
    (=>
      (and
        true
      )
      INIT_STATE
    )
  )
)
(assert
  (forall ( (A Bool) (B Bool) (C Bool) (D Bool) (E Bool) (F Bool) (G Bool) (H Bool) (I Bool) (J Bool) (K Bool) (L Bool) (M Bool) (N Bool) (O Bool) (P Bool) (Q Bool) (R Bool) (S Bool) (T Bool) (U Bool) (V Bool) (W Bool) (X Bool) (Y Bool) (Z Bool) (A1 Bool) (B1 Bool) (C1 Bool) (D1 Bool) (E1 Bool) (F1 Bool) (G1 Bool) (H1 Bool) (I1 Bool) (J1 Bool) (K1 Bool) (L1 Bool) (M1 Bool) (N1 Bool) (O1 Bool) (P1 Bool) (Q1 Bool) (R1 Bool) (S1 Bool) (T1 Bool) (U1 Bool) (V1 Bool) (W1 Bool) (X1 Bool) (Y1 Bool) (Z1 Bool) (A2 Bool) (B2 Bool) (C2 Bool) (D2 Bool) (E2 Bool) (F2 Bool) (G2 Bool) (H2 Bool) (I2 Bool) (J2 Bool) (K2 Bool) (L2 Bool) (M2 Bool) (N2 Bool) (O2 Bool) (P2 Bool) (Q2 Bool) (R2 Bool) (S2 Bool) (T2 Bool) (U2 Bool) (V2 Bool) (W2 Bool) (X2 Bool) (Y2 Bool) (Z2 Bool) (A3 Bool) (B3 Bool) (C3 Bool) (D3 Bool) (E3 Bool) (F3 Bool) (G3 Bool) (H3 Bool) (I3 Bool) (J3 Bool) (K3 Bool) (L3 Bool) (M3 Bool) (N3 Bool) (O3 Bool) (P3 Bool) (Q3 Bool) (R3 Bool) (S3 Bool) (T3 Bool) (U3 Bool) (V3 Bool) (W3 Bool) (X3 Bool) (Y3 Bool) (Z3 Bool) (A4 Bool) (B4 Bool) (C4 Bool) (D4 Bool) (E4 Bool) (F4 Bool) (G4 Bool) (H4 Bool) (I4 Bool) (J4 Bool) (K4 Bool) (L4 Bool) (M4 Bool) (N4 Bool) (O4 Bool) (P4 Bool) (Q4 Bool) (R4 Bool) (S4 Bool) (T4 Bool) (U4 Bool) (V4 Bool) (W4 Bool) (X4 Bool) (Y4 Bool) (Z4 Bool) (A5 Bool) (B5 Bool) (C5 Bool) (D5 Bool) (E5 Bool) (F5 Bool) (G5 Bool) (H5 Bool) (I5 Bool) (J5 Bool) (K5 Bool) ) 
    (=>
      (and
        (top_step T1
          U1
          V1
          W1
          X1
          K5
          Y1
          Z1
          A2
          B2
          C2
          D2
          E2
          F2
          G2
          H2
          I2
          J2
          K2
          L2
          M2
          N2
          O2
          P2
          Q2
          R2
          S2
          T2
          U2
          V2
          W2
          X2
          Y2
          Z2
          A3
          B3
          C3
          D3
          E3
          F3
          G3
          H3
          I3
          J3
          K3
          L3
          M3
          N3
          O3
          P3
          Q3
          R3
          S3
          T3
          U3
          V3
          W3
          X3
          Y3
          Z3
          A4
          B4
          C4
          D4
          E4
          F4
          G4
          H4
          I4
          J4
          K4
          L4
          M4
          N4
          O4
          P4
          Q4
          R4
          S4
          T4
          U4
          V4
          W4
          X4
          Y4
          Z4
          A5
          B5
          C5
          D5
          E5
          F5
          G5
          H5
          I5
          J5)
        INIT_STATE
        (top_reset A
           B
           C
           D
           E
           F
           G
           H
           I
           J
           K
           L
           M
           N
           O
           P
           Q
           R
           S
           T
           U
           V
           W
           X
           Y
           Z
           A1
           B1
           C1
           D1
           E1
           F1
           G1
           H1
           I1
           J1
           K1
           L1
           M1
           N1
           O1
           P1
           Q1
           R1
           S1
           Y1
           Z1
           A2
           B2
           C2
           D2
           E2
           F2
           G2
           H2
           I2
           J2
           K2
           L2
           M2
           N2
           O2
           P2
           Q2
           R2
           S2
           T2
           U2
           V2
           W2
           X2
           Y2
           Z2
           A3
           B3
           C3
           D3
           E3
           F3
           G3
           H3
           I3
           J3
           K3
           L3
           M3
           N3
           O3
           P3
           Q3)
        true
      )
      (MAIN R3
      S3
      T3
      U3
      V3
      W3
      X3
      Y3
      Z3
      A4
      B4
      C4
      D4
      E4
      F4
      G4
      H4
      I4
      J4
      K4
      L4
      M4
      N4
      O4
      P4
      Q4
      R4
      S4
      T4
      U4
      V4
      W4
      X4
      Y4
      Z4
      A5
      B5
      C5
      D5
      E5
      F5
      G5
      H5
      I5
      J5
      K5)
    )
  )
)
(assert
  (forall ( (A Bool) (B Bool) (C Bool) (D Bool) (E Bool) (F Bool) (G Bool) (H Bool) (I Bool) (J Bool) (K Bool) (L Bool) (M Bool) (N Bool) (O Bool) (P Bool) (Q Bool) (R Bool) (S Bool) (T Bool) (U Bool) (V Bool) (W Bool) (X Bool) (Y Bool) (Z Bool) (A1 Bool) (B1 Bool) (C1 Bool) (D1 Bool) (E1 Bool) (F1 Bool) (G1 Bool) (H1 Bool) (I1 Bool) (J1 Bool) (K1 Bool) (L1 Bool) (M1 Bool) (N1 Bool) (O1 Bool) (P1 Bool) (Q1 Bool) (R1 Bool) (S1 Bool) (T1 Bool) (U1 Bool) (V1 Bool) (W1 Bool) (X1 Bool) (Y1 Bool) (Z1 Bool) (A2 Bool) (B2 Bool) (C2 Bool) (D2 Bool) (E2 Bool) (F2 Bool) (G2 Bool) (H2 Bool) (I2 Bool) (J2 Bool) (K2 Bool) (L2 Bool) (M2 Bool) (N2 Bool) (O2 Bool) (P2 Bool) (Q2 Bool) (R2 Bool) (S2 Bool) (T2 Bool) (U2 Bool) (V2 Bool) (W2 Bool) (X2 Bool) (Y2 Bool) (Z2 Bool) (A3 Bool) (B3 Bool) (C3 Bool) (D3 Bool) (E3 Bool) (F3 Bool) (G3 Bool) (H3 Bool) (I3 Bool) (J3 Bool) (K3 Bool) (L3 Bool) (M3 Bool) (N3 Bool) (O3 Bool) (P3 Bool) (Q3 Bool) (R3 Bool) (S3 Bool) ) 
    (=>
      (and
        (top_step B
          C
          D
          E
          F
          S3
          G
          H
          I
          J
          K
          L
          M
          N
          O
          P
          Q
          R
          S
          T
          U
          V
          W
          X
          Y
          Z
          A1
          B1
          C1
          D1
          E1
          F1
          G1
          H1
          I1
          J1
          K1
          L1
          M1
          N1
          O1
          P1
          Q1
          R1
          S1
          T1
          U1
          V1
          W1
          X1
          Y1
          Z1
          A2
          B2
          C2
          D2
          E2
          F2
          G2
          H2
          I2
          J2
          K2
          L2
          M2
          N2
          O2
          P2
          Q2
          R2
          S2
          T2
          U2
          V2
          W2
          X2
          Y2
          Z2
          A3
          B3
          C3
          D3
          E3
          F3
          G3
          H3
          I3
          J3
          K3
          L3
          M3
          N3
          O3
          P3
          Q3
          R3)
        (MAIN G
      H
      I
      J
      K
      L
      M
      N
      O
      P
      Q
      R
      S
      T
      U
      V
      W
      X
      Y
      Z
      A1
      B1
      C1
      D1
      E1
      F1
      G1
      H1
      I1
      J1
      K1
      L1
      M1
      N1
      O1
      P1
      Q1
      R1
      S1
      T1
      U1
      V1
      W1
      X1
      Y1
      A)
        true
      )
      (MAIN Z1
      A2
      B2
      C2
      D2
      E2
      F2
      G2
      H2
      I2
      J2
      K2
      L2
      M2
      N2
      O2
      P2
      Q2
      R2
      S2
      T2
      U2
      V2
      W2
      X2
      Y2
      Z2
      A3
      B3
      C3
      D3
      E3
      F3
      G3
      H3
      I3
      J3
      K3
      L3
      M3
      N3
      O3
      P3
      Q3
      R3
      S3)
    )
  )
)
(assert
  (forall ( (A Bool) (B Bool) (C Bool) (D Bool) (E Bool) (F Bool) (G Bool) (H Bool) (I Bool) (J Bool) (K Bool) (L Bool) (M Bool) (N Bool) (O Bool) (P Bool) (Q Bool) (R Bool) (S Bool) (T Bool) (U Bool) (V Bool) (W Bool) (X Bool) (Y Bool) (Z Bool) (A1 Bool) (B1 Bool) (C1 Bool) (D1 Bool) (E1 Bool) (F1 Bool) (G1 Bool) (H1 Bool) (I1 Bool) (J1 Bool) (K1 Bool) (L1 Bool) (M1 Bool) (N1 Bool) (O1 Bool) (P1 Bool) (Q1 Bool) (R1 Bool) (S1 Bool) (T1 Bool) ) 
    (=>
      (and
        (MAIN A
      B
      C
      D
      E
      F
      G
      H
      I
      J
      K
      L
      M
      N
      O
      P
      Q
      R
      S
      T
      U
      V
      W
      X
      Y
      Z
      A1
      B1
      C1
      D1
      E1
      F1
      G1
      H1
      I1
      J1
      K1
      L1
      M1
      N1
      O1
      P1
      Q1
      R1
      S1
      T1)
        (not T1)
      )
      ERR
    )
  )
)
(assert
  (forall ( (CHC_COMP_UNUSED Bool) ) 
    (=>
      (and
        ERR
        true
      )
      false
    )
  )
)

(check-sat)
(exit)
